  7	54
 12
  0	 15	 69	 53	107	  7	 33	 30	 61	 84	 87	109	
 18
  0	 19	 46	  6	 73	 16	 54	 60	108	100	  2	 31	 70	 10	 64	 85	 56	109	
 12
  0	 17	 71	 51	105	 12	 50	 26	104	 66	 80	109	
 22
  0	 32	 21	 47	101	 75	 86	 37	  4	 58	  8	 62	  3	 91	 34	 57	 38	  5	 88	 92	 59	109	
 20
  0	 45	 23	 22	 28	 76	 99	 20	 82	 40	 74	 77	 94	 43	 35	 97	 41	 89	 95	109	
 18
  0	 36	 90	 24	 18	 39	 72	 49	103	 78	 27	  1	 11	 93	 81	 55	 65	109	
 20
  0	 42	  9	 25	 96	 48	 63	 44	102	 52	 14	 98	 29	 79	 13	 68	 83	106	 67	109	
